(declare-const conc0 Real)
(assert (and (>= conc0 0)))
(declare-const conc1 Real)
(assert (and (>= conc1 0)))
(declare-const conc2 Real)
(assert (and (>= conc2 0)))
(declare-const conc3 Real)
(assert (and (>= conc3 0)))
(declare-const conc4 Real)
(assert (and (>= conc4 0)))
(declare-const conc5 Real)
(assert (and (>= conc5 0)))
(declare-const conc6 Real)
(assert (and (>= conc6 0)))
(declare-const conc7 Real)
(assert (and (>= conc7 0)))
(declare-const conc8 Real)
(assert (and (>= conc8 0)))
(declare-const coef0 Real)
(assert (= coef0 (- (* 0.3678794503 conc0 conc2 ) (* 0.0836195648 conc3 ))))
(declare-const coef1 Real)
(assert (= coef1 (- (* 0.0000095827 conc3 conc1 ) (* 0.3678794503 conc5 ))))
(declare-const coef2 Real)
(assert (= coef2 (- (* 0.0836187676 conc5 conc0 ) (* 0.3678794503 conc6 ))))
(declare-const coef3 Real)
(assert (= coef3 (- (* 0.3678794503 conc6 conc1 ) (* 0.0024787427 conc7 ))))
(declare-const coef4 Real)
(assert (= coef4 (- (* 0.3678794503 conc8 conc0 ) (* 0.0000066166 conc7 ))))
(declare-const coef5 Real)
(assert (= coef5 (- (* 0.3678794503 conc2 conc4 ) (* 0.0043202550 conc8 ))))
(declare-const coef6 Real)
(assert (= coef6 (- (* 0.0002686177 conc2 conc1 ) (* 0.3678794503 conc4 ))))
(assert (> (+ (- coef0) (- coef5) (- coef6) 0) 0.0000000000))
(assert (> (+ coef0 (- coef1) 0) 0.0000000000))
(assert (> (+ (- coef5) coef6 0) 0.0000000000))
(assert (> (+ coef1 (- coef2) 0) 0.0000000000))
(assert (> (+ coef2 (- coef3) 0) 0.0000000000))
(assert (> (+ coef3 coef4 0) 0.0000000000))
(assert (> (+ (- coef4) coef5 0) 0.0000000000))
(check-sat)
(get-model)
